words_hard_train/7894.qaiger
aag 84 16 0 1 68
2
4
8
12
20
28
30
34
40
48
100
104
112
124
126
146
168
6 3 5
10 6 9
14 11 12
16 10 13
18 15 17
22 18 20
24 19 21
26 23 25
32 29 31
36 33 35
38 26 37
42 17 40
44 16 41
46 43 45
50 46 48
52 47 49
54 51 53
56 2 4
58 57 7
60 58 31
62 28 34
64 63 56
66 61 65
68 28 35
70 69 6
72 66 71
74 73 33
76 7 8
78 77 11
80 78 28
82 79 29
84 81 83
86 32 34
88 87 37
90 85 88
92 74 91
94 84 89
96 93 95
98 54 97
102 44 101
106 103 104
108 102 105
110 107 109
114 110 112
116 111 113
118 115 117
120 98 118
122 38 120
128 124 126
130 125 127
132 129 131
134 132 108
136 133 109
138 135 137
140 123 139
142 45 100
144 143 103
148 145 147
150 144 146
152 149 151
154 27 55
156 154 96
158 156 119
160 159 36
162 153 161
164 141 163
166 138 37
168 165 167
i0 1 x1[0]
i1 1 x1[1]
i2 1 x1[2]
i3 1 x1[3]
i4 2 y1[4]
i5 2 y1[5]
i6 2 y1[6]
i7 2 y1[7]
i8 1 x1[4]
i9 2 y1[3]
i10 1 x1[5]
i11 1 x1[6]
i12 2 y1[1]
i13 1 x1[7]
i14 2 y1[0]
i15 2 y1[2]
o0 bv[0]
c
simplified
  >
    >> 5
      2 y1
    xor
      reverse
        2 y1
      unary minus
        1 x1
