words_hard_train/7894.qaiger.qdimacs
p cnf 84 205
a 1 2 4 6 50 20 52 62 0
e 3 5 7 8 9 10 11 12 13 14 15 16 17 18 19 21 22 23 24 25 26 27 28 29 30 31 32 33 34 35 36 37 38 39 40 41 42 43 44 45 46 47 48 49 51 53 54 55 56 57 58 59 60 61 63 64 65 66 67 68 69 70 71 72 73 74 75 76 77 78 79 80 81 82 83 84 0
1 2 3 0
-1 -3 0
-2 -3 0
-3 4 5 0
3 -5 0
-4 -5 0
5 -6 7 0
-5 -7 0
6 -7 0
-5 6 8 0
5 -8 0
-6 -8 0
7 8 9 0
-7 -9 0
-8 -9 0
-9 -10 11 0
9 -11 0
10 -11 0
9 10 12 0
-9 -12 0
-10 -12 0
11 12 13 0
-11 -13 0
-12 -13 0
14 15 16 0
-14 -16 0
-15 -16 0
16 17 18 0
-16 -18 0
-17 -18 0
-13 18 19 0
13 -19 0
-18 -19 0
8 -20 21 0
-8 -21 0
20 -21 0
-8 20 22 0
8 -22 0
-20 -22 0
21 22 23 0
-21 -23 0
-22 -23 0
-23 -24 25 0
23 -25 0
24 -25 0
23 24 26 0
-23 -26 0
-24 -26 0
25 26 27 0
-25 -27 0
-26 -27 0
-1 -2 28 0
1 -28 0
2 -28 0
28 3 29 0
-28 -29 0
-3 -29 0
-29 15 30 0
29 -30 0
-15 -30 0
-14 -17 31 0
14 -31 0
17 -31 0
31 -28 32 0
-31 -32 0
28 -32 0
30 32 33 0
-30 -33 0
-32 -33 0
-14 17 34 0
14 -34 0
-17 -34 0
34 -3 35 0
-34 -35 0
3 -35 0
-33 35 36 0
33 -36 0
-35 -36 0
36 16 37 0
-36 -37 0
-16 -37 0
3 -4 38 0
-3 -38 0
4 -38 0
38 5 39 0
-38 -39 0
-5 -39 0
-39 -14 40 0
39 -40 0
14 -40 0
39 14 41 0
-39 -41 0
-14 -41 0
40 41 42 0
-40 -42 0
-41 -42 0
-16 -17 43 0
16 -43 0
17 -43 0
43 18 44 0
-43 -44 0
-18 -44 0
42 -44 45 0
-42 -45 0
44 -45 0
-37 45 46 0
37 -46 0
-45 -46 0
-42 44 47 0
42 -47 0
-44 -47 0
46 47 48 0
-46 -48 0
-47 -48 0
-27 48 49 0
27 -49 0
-48 -49 0
-22 50 51 0
22 -51 0
-50 -51 0
51 -52 53 0
-51 -53 0
52 -53 0
-51 52 54 0
51 -54 0
-52 -54 0
53 54 55 0
-53 -55 0
-54 -55 0
-55 -56 57 0
55 -57 0
56 -57 0
55 56 58 0
-55 -58 0
-56 -58 0
57 58 59 0
-57 -59 0
-58 -59 0
-49 -59 60 0
49 -60 0
59 -60 0
-19 -60 61 0
19 -61 0
60 -61 0
-62 -63 64 0
62 -64 0
63 -64 0
62 63 65 0
-62 -65 0
-63 -65 0
64 65 66 0
-64 -66 0
-65 -66 0
-66 -54 67 0
66 -67 0
54 -67 0
66 54 68 0
-66 -68 0
-54 -68 0
67 68 69 0
-67 -69 0
-68 -69 0
61 69 70 0
-61 -70 0
-69 -70 0
22 -50 71 0
-22 -71 0
50 -71 0
71 51 72 0
-71 -72 0
-51 -72 0
72 73 74 0
-72 -74 0
-73 -74 0
-72 -73 75 0
72 -75 0
73 -75 0
74 75 76 0
-74 -76 0
-75 -76 0
13 27 77 0
-13 -77 0
-27 -77 0
-77 -48 78 0
77 -78 0
48 -78 0
-78 59 79 0
78 -79 0
-59 -79 0
79 -18 80 0
-79 -80 0
18 -80 0
76 80 81 0
-76 -81 0
-80 -81 0
70 81 82 0
-70 -82 0
-81 -82 0
-69 18 83 0
69 -83 0
-18 -83 0
82 83 84 0
-82 -84 0
-83 -84 0
84 0
